n_res = 4;
rc = [ 0, 0, 0, 0 ];
n_tasks = 30;
d = [ 5, 2, 7, 4, 1, 3, 9, 8, 10, 10, 8, 9, 10, 4, 9, 6, 3, 9, 8, 4, 3, 4, 9, 9, 5, 4, 7, 7, 1, 9 ];
rr = [| 0, 0, 0, 0, 0, 0, 0, 0, 0, 0, 0, 0, 0, 0, 0, 0, 0, 0, 0, 0, 0, 0, 0, 0, 0, 0, 0, 0, 0, 0
      | 0, 0, 0, 0, 0, 0, 0, 0, 0, 0, 0, 0, 0, 0, 0, 0, 0, 0, 0, 0, 0, 0, 0, 0, 0, 0, 0, 0, 0, 0
      | 0, 0, 0, 0, 0, 0, 0, 0, 0, 0, 0, 0, 0, 0, 0, 0, 0, 0, 0, 0, 0, 0, 0, 0, 0, 0, 0, 0, 0, 0
      | 0, 0, 0, 0, 0, 0, 0, 0, 0, 0, 0, 0, 0, 0, 0, 0, 0, 0, 0, 0, 0, 0, 0, 0, 0, 0, 0, 0, 0, 0 |];
suc = [ { 6, 10, 11 },
       { 4, 5, 28 },
       { 8, 9 },
       { 15 },
       { 29 },
       { 7, 24, 25 },
       { 20 },
       { 18 },
       { 14 },
       { 21 },
       { 12, 13 },
       { 19 },
       { 17 },
       { 16, 17, 26 },
       { 24 },
       { 22 },
       { 21, 27, 30 },
       { 22, 25 },
       { 24 },
       { 22, 26 },
       { 23 },
       { 28 },
       { 29 },
       { 26, 29 },
       { 30 },
       { 30 },
       { 28 },
       {  },
       {  },
       {  } ];
